32      4       
10      10      10      10      
0       0       0       0       0       3       2       3       4       
5       1       1       0       1       3       5       6       7       
4       2       6       0       1       3       5       6       7       
8       8       5       0       7       2       6       10      
4       2       4       0       2       4       8       9       10      12      
7       6       0       1       6       3       8       9       12      
6       3       3       0       5       3       8       9       12      
4       4       0       7       5       2       11      14      
1       6       5       6       0       3       13      14      16      
8       3       3       8       0       1       11      
10      4       0       4       3       2       13      16      
4       4       5       6       0       2       13      16      
8       4       8       0       4       2       15      17      
5       5       5       4       0       1       15      
4       0       5       2       4       2       18      19      
4       0       2       6       2       2       18      19      
9       0       5       2       7       1       18      
10      0       7       2       6       4       20      21      22      24      
1       3       4       0       3       4       20      21      22      24      
1       5       4       0       1       1       23      
4       1       2       4       0       1       23      
3       3       2       0       4       1       23      
1       5       6       2       0       1       25      
5       3       4       0       6       1       25      
9       0       3       3       6       1       26      
2       6       3       7       0       1       27      
5       0       2       1       2       1       28      
1       6       0       2       3       2       29      31      
6       0       5       6       2       1       30      
8       4       0       3       5       1       32      
9       4       1       0       7       1       32      
0       0       0       0       0       0       
